; PUSH cw_3 DUP5 PUSH 0x00 NOT AND PUSH cw_3 => PUSH cw_3 DUP5 DUP2
(set-option :produce-proofs true)
; 
(set-info :status unknown)
(declare-fun storage_t ((_ BitVec 256) (_ BitVec 256) (_ BitVec 256) (_ BitVec 256) (_ BitVec 256) Int (_ BitVec 256)) (_ BitVec 256))
(declare-fun w_3 () (_ BitVec 256))
(declare-fun storage_s ((_ BitVec 256) (_ BitVec 256) (_ BitVec 256) (_ BitVec 256) (_ BitVec 256) Int (_ BitVec 256)) (_ BitVec 256))
(declare-fun exc_halt_t (Int) Bool)
(declare-fun exc_halt_s (Int) Bool)
(declare-fun stack_t ((_ BitVec 256) (_ BitVec 256) (_ BitVec 256) (_ BitVec 256) (_ BitVec 256) Int (_ BitVec 6)) (_ BitVec 256))
(declare-fun stack_s ((_ BitVec 256) (_ BitVec 256) (_ BitVec 256) (_ BitVec 256) (_ BitVec 256) Int (_ BitVec 6)) (_ BitVec 256))
(declare-fun sc_t (Int) (_ BitVec 6))
(declare-fun sc_s (Int) (_ BitVec 6))
(declare-fun used_gas_t ((_ BitVec 256) (_ BitVec 256) (_ BitVec 256) (_ BitVec 256) (_ BitVec 256) Int) Int)
(declare-fun used_gas_s ((_ BitVec 256) (_ BitVec 256) (_ BitVec 256) (_ BitVec 256) (_ BitVec 256) Int) Int)
(assert
 (exists ((x_0 (_ BitVec 256)) (x_1 (_ BitVec 256)) (x_2 (_ BitVec 256)) (x_3 (_ BitVec 256)) )(let (($x11232 (forall ((w (_ BitVec 256)) )(let ((?x4214 (storage_t x_0 x_1 x_2 x_3 w_3 3 w)))
 (let ((?x2198 (storage_s x_0 x_1 x_2 x_3 w_3 6 w)))
 (= ?x2198 ?x4214))))
 ))
 (let (($x6783 (exc_halt_t 3)))
 (let (($x772 (exc_halt_s 6)))
 (let (($x3870 (= $x772 $x6783)))
 (let (($x4178 (forall ((n (_ BitVec 6)) )(let ((?x6732 (stack_t x_0 x_1 x_2 x_3 w_3 3 n)))
 (let ((?x6027 (stack_s x_0 x_1 x_2 x_3 w_3 6 n)))
 (let (($x9092 (= ?x6027 ?x6732)))
 (let ((?x6438 (sc_t 3)))
 (let (($x5838 (bvsle ?x6438 n)))
 (or $x5838 $x9092)))))))
 ))
 (let ((?x6438 (sc_t 3)))
 (let ((?x926 (sc_s 6)))
 (let (($x5324 (= ?x926 ?x6438)))
 (let ((?x8909 (used_gas_t x_0 x_1 x_2 x_3 w_3 0)))
 (let ((?x2256 (used_gas_s x_0 x_1 x_2 x_3 w_3 0)))
 (let (($x11560 (= ?x2256 ?x8909)))
 (let (($x11606 (forall ((w (_ BitVec 256)) )(let ((?x10520 (storage_t x_0 x_1 x_2 x_3 w_3 0 w)))
 (let ((?x10526 (storage_s x_0 x_1 x_2 x_3 w_3 0 w)))
 (= ?x10526 ?x10520))))
 ))
 (let (($x56 (exc_halt_t 0)))
 (let (($x57 (exc_halt_s 0)))
 (let (($x58 (= $x57 $x56)))
 (let (($x10499 (forall ((n (_ BitVec 6)) )(let ((?x10285 (stack_t x_0 x_1 x_2 x_3 w_3 0 n)))
 (let ((?x3366 (stack_s x_0 x_1 x_2 x_3 w_3 0 n)))
 (let (($x10351 (= ?x3366 ?x10285)))
 (let ((?x63 (sc_t 0)))
 (let (($x6686 (bvsle ?x63 n)))
 (or $x6686 $x10351)))))))
 ))
 (let ((?x63 (sc_t 0)))
 (let ((?x72 (sc_s 0)))
 (let (($x73 (= ?x72 ?x63)))
 (let (($x10658 (not (= ((_ extract 6 6) (bvadd (_ bv1 7) (concat (_ bv0 1) (sc_t 2)))) (_ bv0 1)))))
 (let (($x5252 (exc_halt_t 2)))
 (let (($x1537 (not (bvsle (_ bv0 6) (bvadd (_ bv62 6) (sc_t 2))))))
 (let (($x11114 (forall ((w (_ BitVec 256)) )(let ((?x3532 (storage_t x_0 x_1 x_2 x_3 w_3 2 w)))
 (let ((?x4214 (storage_t x_0 x_1 x_2 x_3 w_3 3 w)))
 (= ?x4214 ?x3532))))
 ))
 (let (($x1303 (forall ((n (_ BitVec 6)) )(let ((?x2714 (sc_t 2)))
 (let ((?x3921 (bvadd (_ bv62 6) ?x2714)))
 (let (($x6989 (bvsle ?x3921 n)))
 (let ((?x4893 (stack_t x_0 x_1 x_2 x_3 w_3 2 n)))
 (let ((?x6732 (stack_t x_0 x_1 x_2 x_3 w_3 3 n)))
 (or (= ?x6732 ?x4893) $x6989)))))))
 ))
 (let (($x10750 (= ?x6438 (bvadd (_ bv1 6) (sc_t 2)))))
 (let (($x2903 (= (used_gas_t x_0 x_1 x_2 x_3 w_3 3) (+ 3 (used_gas_t x_0 x_1 x_2 x_3 w_3 2)))))
 (let ((?x2714 (sc_t 2)))
 (let ((?x3527 (bvadd (_ bv63 6) ?x2714)))
 (let ((?x6965 (stack_t x_0 x_1 x_2 x_3 w_3 2 ?x3527)))
 (let ((?x3921 (bvadd (_ bv62 6) ?x2714)))
 (let ((?x5872 (stack_t x_0 x_1 x_2 x_3 w_3 2 ?x3921)))
 (let (($x11639 (not (= ((_ extract 6 6) (bvadd (_ bv1 7) (concat (_ bv0 1) (sc_t 1)))) (_ bv0 1)))))
 (let (($x3508 (exc_halt_t 1)))
 (let (($x1410 (forall ((w (_ BitVec 256)) )(let ((?x2399 (storage_t x_0 x_1 x_2 x_3 w_3 1 w)))
 (let ((?x3532 (storage_t x_0 x_1 x_2 x_3 w_3 2 w)))
 (= ?x3532 ?x2399))))
 ))
 (let (($x10883 (forall ((n (_ BitVec 6)) )(let ((?x10207 (stack_t x_0 x_1 x_2 x_3 w_3 1 n)))
 (let ((?x4893 (stack_t x_0 x_1 x_2 x_3 w_3 2 n)))
 (or (= ?x4893 ?x10207) (bvsle (bvadd (_ bv59 6) (sc_t 1)) n)))))
 ))
 (let (($x5193 (= ?x2714 (bvadd (_ bv1 6) (sc_t 1)))))
 (let ((?x9035 (used_gas_t x_0 x_1 x_2 x_3 w_3 2)))
 (let (($x7243 (= (stack_t x_0 x_1 x_2 x_3 w_3 2 (bvadd (_ bv63 6) (sc_t 1))) (stack_t x_0 x_1 x_2 x_3 w_3 1 (bvadd (_ bv63 6) (sc_t 1))))))
 (let (($x3272 (= (stack_t x_0 x_1 x_2 x_3 w_3 2 (bvadd (_ bv62 6) (sc_t 1))) (stack_t x_0 x_1 x_2 x_3 w_3 1 (bvadd (_ bv62 6) (sc_t 1))))))
 (let (($x11759 (= (stack_t x_0 x_1 x_2 x_3 w_3 2 (bvadd (_ bv61 6) (sc_t 1))) (stack_t x_0 x_1 x_2 x_3 w_3 1 (bvadd (_ bv61 6) (sc_t 1))))))
 (let (($x7225 (= (stack_t x_0 x_1 x_2 x_3 w_3 2 (bvadd (_ bv60 6) (sc_t 1))) (stack_t x_0 x_1 x_2 x_3 w_3 1 (bvadd (_ bv60 6) (sc_t 1))))))
 (let ((?x8347 (sc_t 1)))
 (let ((?x6866 (bvadd (_ bv59 6) ?x8347)))
 (let ((?x7232 (stack_t x_0 x_1 x_2 x_3 w_3 1 ?x6866)))
 (let (($x3632 (= $x3508 (or $x56 (not (= ((_ extract 6 6) (bvadd (_ bv1 7) (concat (_ bv0 1) ?x63))) (_ bv0 1)))))))
 (let (($x1491 (forall ((w (_ BitVec 256)) )(let ((?x10520 (storage_t x_0 x_1 x_2 x_3 w_3 0 w)))
 (let ((?x2399 (storage_t x_0 x_1 x_2 x_3 w_3 1 w)))
 (= ?x2399 ?x10520))))
 ))
 (let (($x11495 (forall ((n (_ BitVec 6)) )(let ((?x10285 (stack_t x_0 x_1 x_2 x_3 w_3 0 n)))
 (let ((?x10207 (stack_t x_0 x_1 x_2 x_3 w_3 1 n)))
 (let ((?x63 (sc_t 0)))
 (let (($x6686 (bvsle ?x63 n)))
 (or $x6686 (= ?x10207 ?x10285)))))))
 ))
 (let (($x7135 (= ?x8347 (bvadd (_ bv1 6) ?x63))))
 (let (($x11317 (exc_halt_s 5)))
 (let (($x1737 (or $x11317 (not (= ((_ extract 6 6) (bvadd (_ bv1 7) (concat (_ bv0 1) (sc_s 5)))) (_ bv0 1))))))
 (let (($x4228 (= $x772 $x1737)))
 (let (($x2005 (forall ((w (_ BitVec 256)) )(let ((?x4329 (storage_s x_0 x_1 x_2 x_3 w_3 5 w)))
 (let ((?x2198 (storage_s x_0 x_1 x_2 x_3 w_3 6 w)))
 (= ?x2198 ?x4329))))
 ))
 (let (($x5602 (forall ((n (_ BitVec 6)) )(let ((?x4319 (sc_s 5)))
 (let (($x9501 (bvsle ?x4319 n)))
 (let ((?x8166 (stack_s x_0 x_1 x_2 x_3 w_3 5 n)))
 (let ((?x6027 (stack_s x_0 x_1 x_2 x_3 w_3 6 n)))
 (or (= ?x6027 ?x8166) $x9501))))))
 ))
 (let (($x8824 (= ?x926 (bvadd (_ bv1 6) (sc_s 5)))))
 (let (($x1243 (= (used_gas_s x_0 x_1 x_2 x_3 w_3 6) (+ 3 (used_gas_s x_0 x_1 x_2 x_3 w_3 5)))))
 (let (($x7471 (= $x11317 (or (exc_halt_s 4) (not (bvsle (_ bv0 6) (bvadd (_ bv62 6) (sc_s 4))))))))
 (let (($x8878 (forall ((w (_ BitVec 256)) )(let ((?x8770 (storage_s x_0 x_1 x_2 x_3 w_3 4 w)))
 (let ((?x4329 (storage_s x_0 x_1 x_2 x_3 w_3 5 w)))
 (= ?x4329 ?x8770))))
 ))
 (let (($x2843 (forall ((n (_ BitVec 6)) )(let ((?x4305 (sc_s 4)))
 (let ((?x9107 (bvadd (_ bv62 6) ?x4305)))
 (let (($x9713 (bvsle ?x9107 n)))
 (let ((?x10155 (stack_s x_0 x_1 x_2 x_3 w_3 4 n)))
 (let ((?x8166 (stack_s x_0 x_1 x_2 x_3 w_3 5 n)))
 (or (= ?x8166 ?x10155) $x9713)))))))
 ))
 (let ((?x4305 (sc_s 4)))
 (let ((?x7978 (bvadd (_ bv63 6) ?x4305)))
 (let ((?x4319 (sc_s 5)))
 (let (($x3895 (= ?x4319 ?x7978)))
 (let ((?x9936 (used_gas_s x_0 x_1 x_2 x_3 w_3 5)))
 (let ((?x1008 (bvor (bvnot (stack_s x_0 x_1 x_2 x_3 w_3 4 ?x7978)) (bvnot (stack_s x_0 x_1 x_2 x_3 w_3 4 (bvadd (_ bv62 6) ?x4305))))))
 (let (($x8268 (= (stack_s x_0 x_1 x_2 x_3 w_3 5 (bvadd (_ bv63 6) ?x4319)) (bvnot ?x1008))))
 (let (($x7172 (exc_halt_s 4)))
 (let (($x1954 (= $x7172 (or (exc_halt_s 3) (not (bvsle (_ bv0 6) (bvadd (_ bv63 6) (sc_s 3))))))))
 (let (($x11405 (forall ((w (_ BitVec 256)) )(let ((?x1187 (storage_s x_0 x_1 x_2 x_3 w_3 3 w)))
 (let ((?x8770 (storage_s x_0 x_1 x_2 x_3 w_3 4 w)))
 (= ?x8770 ?x1187))))
 ))
 (let (($x7563 (forall ((n (_ BitVec 6)) )(let ((?x8719 (stack_s x_0 x_1 x_2 x_3 w_3 3 n)))
 (let ((?x10155 (stack_s x_0 x_1 x_2 x_3 w_3 4 n)))
 (let ((?x275 (sc_s 3)))
 (let ((?x3893 (bvadd (_ bv63 6) ?x275)))
 (let (($x975 (bvsle ?x3893 n)))
 (or $x975 (= ?x10155 ?x8719))))))))
 ))
 (let ((?x275 (sc_s 3)))
 (let (($x4885 (= ?x4305 ?x275)))
 (let ((?x5076 (used_gas_s x_0 x_1 x_2 x_3 w_3 4)))
 (let ((?x9967 (stack_s x_0 x_1 x_2 x_3 w_3 4 ?x7978)))
 (let (($x9523 (= ?x9967 (bvnot (stack_s x_0 x_1 x_2 x_3 w_3 3 (bvadd (_ bv63 6) ?x275))))))
 (let (($x6537 (not (= ((_ extract 6 6) (bvadd (_ bv1 7) (concat (_ bv0 1) (sc_s 2)))) (_ bv0 1)))))
 (let (($x247 (exc_halt_s 2)))
 (let (($x292 (exc_halt_s 3)))
 (let (($x11087 (= $x292 (or $x247 $x6537))))
 (let (($x10078 (forall ((w (_ BitVec 256)) )(let ((?x2556 (storage_s x_0 x_1 x_2 x_3 w_3 2 w)))
 (let ((?x1187 (storage_s x_0 x_1 x_2 x_3 w_3 3 w)))
 (= ?x1187 ?x2556))))
 ))
 (let (($x4352 (forall ((n (_ BitVec 6)) )(let ((?x218 (sc_s 2)))
 (let (($x11364 (bvsle ?x218 n)))
 (let ((?x853 (stack_s x_0 x_1 x_2 x_3 w_3 2 n)))
 (let ((?x8719 (stack_s x_0 x_1 x_2 x_3 w_3 3 n)))
 (or (= ?x8719 ?x853) $x11364))))))
 ))
 (let (($x7666 (= ?x275 (bvadd (_ bv1 6) (sc_s 2)))))
 (let ((?x10066 (used_gas_s x_0 x_1 x_2 x_3 w_3 3)))
 (let (($x5097 (not (= ((_ extract 6 6) (bvadd (_ bv1 7) (concat (_ bv0 1) (sc_s 1)))) (_ bv0 1)))))
 (let (($x189 (exc_halt_s 1)))
 (let (($x6391 (forall ((w (_ BitVec 256)) )(let ((?x6714 (storage_s x_0 x_1 x_2 x_3 w_3 1 w)))
 (let ((?x2556 (storage_s x_0 x_1 x_2 x_3 w_3 2 w)))
 (= ?x2556 ?x6714))))
 ))
 (let (($x10509 (forall ((n (_ BitVec 6)) )(let ((?x10208 (stack_s x_0 x_1 x_2 x_3 w_3 1 n)))
 (let ((?x853 (stack_s x_0 x_1 x_2 x_3 w_3 2 n)))
 (or (= ?x853 ?x10208) (bvsle (bvadd (_ bv59 6) (sc_s 1)) n)))))
 ))
 (let ((?x218 (sc_s 2)))
 (let (($x7086 (= ?x218 (bvadd (_ bv1 6) (sc_s 1)))))
 (let ((?x8307 (used_gas_s x_0 x_1 x_2 x_3 w_3 2)))
 (let (($x9681 (= (stack_s x_0 x_1 x_2 x_3 w_3 2 (bvadd (_ bv63 6) (sc_s 1))) (stack_s x_0 x_1 x_2 x_3 w_3 1 (bvadd (_ bv63 6) (sc_s 1))))))
 (let (($x4129 (= (stack_s x_0 x_1 x_2 x_3 w_3 2 (bvadd (_ bv62 6) (sc_s 1))) (stack_s x_0 x_1 x_2 x_3 w_3 1 (bvadd (_ bv62 6) (sc_s 1))))))
 (let (($x8438 (= (stack_s x_0 x_1 x_2 x_3 w_3 2 (bvadd (_ bv61 6) (sc_s 1))) (stack_s x_0 x_1 x_2 x_3 w_3 1 (bvadd (_ bv61 6) (sc_s 1))))))
 (let (($x7748 (= (stack_s x_0 x_1 x_2 x_3 w_3 2 (bvadd (_ bv60 6) (sc_s 1))) (stack_s x_0 x_1 x_2 x_3 w_3 1 (bvadd (_ bv60 6) (sc_s 1))))))
 (let ((?x154 (sc_s 1)))
 (let ((?x5584 (bvadd (_ bv59 6) ?x154)))
 (let ((?x734 (stack_s x_0 x_1 x_2 x_3 w_3 1 ?x5584)))
 (let (($x4791 (= $x189 (or $x57 (not (= ((_ extract 6 6) (bvadd (_ bv1 7) (concat (_ bv0 1) ?x72))) (_ bv0 1)))))))
 (let (($x9219 (forall ((w (_ BitVec 256)) )(let ((?x10526 (storage_s x_0 x_1 x_2 x_3 w_3 0 w)))
 (let ((?x6714 (storage_s x_0 x_1 x_2 x_3 w_3 1 w)))
 (= ?x6714 ?x10526))))
 ))
 (let (($x702 (forall ((n (_ BitVec 6)) )(let ((?x3366 (stack_s x_0 x_1 x_2 x_3 w_3 0 n)))
 (let ((?x10208 (stack_s x_0 x_1 x_2 x_3 w_3 1 n)))
 (let ((?x72 (sc_s 0)))
 (let (($x10370 (bvsle ?x72 n)))
 (or $x10370 (= ?x10208 ?x3366)))))))
 ))
 (let (($x5483 (= ?x154 (bvadd (_ bv1 6) ?x72))))
 (let (($x10079 (forall ((w (_ BitVec 256)) )(let ((?x10526 (storage_s x_0 x_1 x_2 x_3 w_3 0 w)))
 (= ?x10526 (_ bv0 256))))
 ))
 (let (($x11089 (= ?x2256 0)))
 (let (($x11124 (not $x57)))
 (let (($x3087 (= (stack_s x_0 x_1 x_2 x_3 w_3 0 (_ bv3 6)) x_3)))
 (let (($x456 (= (stack_s x_0 x_1 x_2 x_3 w_3 0 (_ bv2 6)) x_2)))
 (let (($x10093 (= (stack_s x_0 x_1 x_2 x_3 w_3 0 (_ bv1 6)) x_1)))
 (let (($x153 (= (stack_s x_0 x_1 x_2 x_3 w_3 0 (_ bv0 6)) x_0)))
 (let (($x289 (= ?x72 (_ bv4 6))))
 (and $x289 $x153 $x10093 $x456 $x3087 $x11124 $x11089 $x10079 (= (stack_s x_0 x_1 x_2 x_3 w_3 1 ?x72) w_3) (= (used_gas_s x_0 x_1 x_2 x_3 w_3 1) (+ 3 ?x2256)) $x5483 $x702 $x9219 $x4791 (= (stack_s x_0 x_1 x_2 x_3 w_3 2 (bvadd (_ bv63 6) ?x218)) ?x734) (= (stack_s x_0 x_1 x_2 x_3 w_3 2 ?x5584) ?x734) $x7748 $x8438 $x4129 $x9681 (= ?x8307 (+ 3 (used_gas_s x_0 x_1 x_2 x_3 w_3 1))) $x7086 $x10509 $x6391 (= $x247 (or $x189 $x5097 (not (bvsle (_ bv0 6) ?x5584)))) (= (stack_s x_0 x_1 x_2 x_3 w_3 3 ?x218) (_ bv0 256)) (= ?x10066 (+ 3 ?x8307)) $x7666 $x4352 $x10078 $x11087 $x9523 (= ?x5076 (+ 3 ?x10066)) $x4885 $x7563 $x11405 $x1954 $x8268 (= ?x9936 (+ 3 ?x5076)) $x3895 $x2843 $x8878 $x7471 (= (stack_s x_0 x_1 x_2 x_3 w_3 6 ?x4319) w_3) $x1243 $x8824 $x5602 $x2005 $x4228 (= (stack_t x_0 x_1 x_2 x_3 w_3 1 ?x63) w_3) (= (used_gas_t x_0 x_1 x_2 x_3 w_3 1) (+ 3 ?x8909)) $x7135 $x11495 $x1491 $x3632 (= ?x6965 ?x7232) (= (stack_t x_0 x_1 x_2 x_3 w_3 2 ?x6866) ?x7232) $x7225 $x11759 $x3272 $x7243 (= ?x9035 (+ 3 (used_gas_t x_0 x_1 x_2 x_3 w_3 1))) $x5193 $x10883 $x1410 (= $x5252 (or $x3508 (not (bvsle (_ bv0 6) ?x6866)) $x11639)) (= (stack_t x_0 x_1 x_2 x_3 w_3 3 (bvadd (_ bv63 6) ?x6438)) ?x5872) (= (stack_t x_0 x_1 x_2 x_3 w_3 3 ?x3921) ?x5872) (= (stack_t x_0 x_1 x_2 x_3 w_3 3 ?x3527) ?x6965) $x2903 $x10750 $x1303 $x11114 (= $x6783 (or $x1537 $x5252 $x10658)) $x73 $x10499 $x58 $x11606 $x11560 (not (and $x5324 $x4178 $x3870 $x11232))))))))))))))))))))))))))))))))))))))))))))))))))))))))))))))))))))))))))))))))))))))))))))))))))))))))))))))))
 )
(check-sat)
(get-proof)
